Intro to Optimization/problem.mps
NAME ReOrg
* Max problem is converted into Min one
ROWS
 N  OBJ
 E  R0      
 E  R1      
 E  R2      
 G  R3      
 G  R4      
 G  R5      
 G  R6      
 G  R7      
 G  R8      
 G  R9      
 G  R10     
 G  R11     
 G  R12     
 G  R13     
 G  R14     
 G  R15     
 G  R16     
 G  R17     
 G  R18     
 G  R19     
 G  R20     
 G  R21     
 G  R22     
 G  R23     
 G  R24     
 G  R25     
 G  R26     
 G  R27     
 G  R28     
 G  R29     
COLUMNS
    MARKER    'MARKER'                 'INTORG'
    C0        R0        1
    C0        R3        2
    C0        R6        1
    C0        R9        1
    C0        R12       1
    C0        R21       1
    C1        R0        1
    C1        R4        2
    C1        R7        1
    C1        R10       1
    C1        R13       1
    C1        R22       1
    C2        R0        1
    C2        R5        2
    C2        R8        1
    C2        R11       1
    C2        R14       1
    C2        R23       1
    C3        R1        1
    C3        R6        1
    C3        R12       1
    C3        R15       2
    C3        R18       1
    C3        R24       1
    C4        R1        1
    C4        R7        1
    C4        R13       1
    C4        R16       2
    C4        R19       1
    C4        R25       1
    C5        R1        1
    C5        R8        1
    C5        R14       1
    C5        R17       2
    C5        R20       1
    C5        R26       1
    C6        R2        1
    C6        R9        1
    C6        R18       1
    C6        R21       1
    C6        R24       1
    C6        R27       2
    C7        R2        1
    C7        R10       1
    C7        R19       1
    C7        R22       1
    C7        R25       1
    C7        R28       2
    C8        R2        1
    C8        R11       1
    C8        R20       1
    C8        R23       1
    C8        R26       1
    C8        R29       2
    C9        R3        -2
    C9        R4        -2
    C9        R5        -2
    C10       R6        -2
    C10       R7        -2
    C10       R8        -2
    C11       R9        -2
    C11       R10       -2
    C11       R11       -2
    C12       R12       -2
    C12       R13       -2
    C12       R14       -2
    C13       R15       -2
    C13       R16       -2
    C13       R17       -2
    C14       OBJ       -1
    C14       R18       -2
    C14       R19       -2
    C14       R20       -2
    C15       R21       -2
    C15       R22       -2
    C15       R23       -2
    C16       OBJ       -1
    C16       R24       -2
    C16       R25       -2
    C16       R26       -2
    C17       R27       -2
    C17       R28       -2
    C17       R29       -2
    MARKER    'MARKER'                 'INTEND'
RHS
    RHS1      R0        1
    RHS1      R1        1
    RHS1      R2        1
BOUNDS
 BV BND1      C0      
 BV BND1      C1      
 BV BND1      C2      
 BV BND1      C3      
 BV BND1      C4      
 BV BND1      C5      
 BV BND1      C6      
 BV BND1      C7      
 BV BND1      C8      
 BV BND1      C9      
 BV BND1      C10     
 BV BND1      C11     
 BV BND1      C12     
 BV BND1      C13     
 BV BND1      C14     
 BV BND1      C15     
 BV BND1      C16     
 BV BND1      C17     
ENDATA
